c
c This is glucose 2.1 --  based on MiniSAT (Many thanks to MiniSAT team)
c
c WARNING: for repeatability, setting FPU to use double precision
c ========================================[ Problem Statistics ]===========================================
c |                                                                                                       |
c |  Number of variables:        633632                                                                   |
c |  Number of clauses:         1610430                                                                   |
c |  Parse time:                   0.50 s                                                                 |
c |                                                                                                       |
c ========================================[ MAGIC CONSTANTS ]==============================================
c | Constants are supposed to work well together :-)                                                      |
c | however, if you find better choices, please let us known...                                           |
c |-------------------------------------------------------------------------------------------------------|
c |                                |                                |                                     |
c | - Restarts:                    | - Reduce Clause DB:            | - Minimize Asserting:               |
c |   * LBD Queue    :     50      |   * First     :   4000         |    * size <  30                     |
c |   * Trail  Queue :   5000      |   * Inc       :    300         |    * lbd  <   6                     |
c |   * K            :   0.80      |   * Special   :   1000         |                                     |
c |   * R            :   1.40      |   * Protected :  (lbd)< 30     |                                     |
c |                                |                                |                                     |
c ==================================[ Search Statistics (every  10000 conflicts) ]=========================
c |                                                                                                       |
c |          RESTARTS           |          ORIGINAL         |              LEARNT              | Progress |
c |       NB   Blocked  Avg Cfc |    Vars  Clauses Literals |   Red   Learnts    LBD2  Removed |          |
c =========================================================================================================
c |       68         0      147 |  373196  1588030  3549656 |     1     8002      260     1997 | 41.102 % |
c |      141         0      141 |  373196  1588030  3549656 |     3     7027      542    12972 | 41.102 % |
c |      233         0      128 |  373196  1588030  3549656 |     3    17027      832    12972 | 41.102 % |
c |      301         0      132 |  373196  1588030  3549656 |     4    17747     1072    22252 | 41.102 % |
c |      394         2      126 |  373196  1588030  3549656 |     5    15998     1334    34001 | 41.102 % |
c |      491         3      122 |  373196  1588030  3549656 |     5    25998     1596    34001 | 41.102 % |
c |      577         3      121 |  373196  1588030  3549656 |     6    21517     1870    48482 | 41.102 % |
c |      667         3      119 |  373196  1588030  3549656 |     6    31517     2115    48482 | 41.102 % |
c |      758         3      118 |  373196  1588030  3549656 |     7    25395     2347    64604 | 41.102 % |
c |      843         4      118 |  373196  1588030  3549656 |     7    35395     2600    64604 | 41.102 % |
c |      935         4      117 |  373196  1588030  3549656 |     8    26660     2793    83339 | 41.102 % |
c |     1023         4      117 |  373196  1588030  3549656 |     8    36660     3000    83339 | 41.102 % |
c |     1118         4      116 |  373196  1588030  3549656 |     9    25705     3137   104294 | 41.102 % |
c |     1207         6      115 |  373196  1588030  3549656 |     9    35705     3385   104294 | 41.102 % |
c |     1301         6      115 |  373196  1588030  3549656 |     9    45705     3609   104294 | 41.102 % |
c |     1398         6      114 |  373196  1588030  3549656 |    10    32036     3755   127963 | 41.102 % |
c |     1497         6      113 |  373196  1588030  3549656 |    10    42036     3893   127963 | 41.102 % |
c |     1597         6      112 |  373196  1588030  3549656 |    10    52036     4043   127963 | 41.102 % |
c |     1689         6      112 |  373196  1588030  3549656 |    11    35772     4201   154227 | 41.102 % |
c |     1797         6      111 |  373196  1588030  3549656 |    11    45772     4320   154227 | 41.102 % |
c |     1854        27      113 |  373196  1588030  3549656 |    11    55772     4515   154227 | 41.102 % |
c |     1969        28      111 |  373196  1588030  3549656 |    12    36750     4645   183249 | 41.102 % |
c last restart ## conflicts  :  51 750 
c =========================================================================================================
c restarts              : 2005 (111 conflicts in avg)
c blocked restarts      : 28 (multiple: 14) 
c last block at restart : 1856
c nb ReduceDB           : 12
c nb removed Clauses    : 183249
c nb learnts DL2        : 4692
c nb learnts size 2     : 2429
c nb learnts size 1     : 0
c conflicts             : 223106         (464 /sec)
c decisions             : 2658734        (0.00 % random) (5533 /sec)
c propagations          : 1870255505     (3892262 /sec)
c conflict literals     : 9586110        (15.85 % deleted)
c nb reduced Clauses    : 5904
c CPU time              : 480.506 s
s SATISFIABLE
